0000000000000000
0000000000000000
0000100000000000
0001111111000000
0001111111110000
0000000000100000
0000000000011000
0000000000011000
0000000000001000
0000000000011000
0000000000011000
0000000000100000
0000000001100000
0011111111000000
0000000000000000
0000000000000000
